NAME          
ROWS
 N  OBJ
 L  c1
 L  c2
 L  c3
 L  c4
COLUMNS
    MARKER    'MARKER'                 'INTORG'
    x[1]      c1        109
    x[1]      c2        381
    x[1]      c3        312
    x[1]      c4        68
    x[1]      OBJ       -480
    x[2]      c1        391
    x[2]      c2        27
    x[2]      c3        27
    x[2]      c4        256
    x[2]      OBJ       -931
    x[3]      c1        206
    x[3]      c2        805
    x[3]      c3        650
    x[3]      c4        457
    x[3]      OBJ       -4
    x[4]      c1        147
    x[4]      c2        423
    x[4]      c3        846
    x[4]      c4        390
    x[4]      OBJ       -843
    x[5]      c1        333
    x[5]      c2        266
    x[5]      c3        616
    x[5]      c4        752
    x[5]      OBJ       -401
    x[6]      c1        905
    x[6]      c2        11
    x[6]      c3        219
    x[6]      c4        166
    x[6]      OBJ       -364
    x[7]      c1        349
    x[7]      c2        990
    x[7]      c3        368
    x[7]      c4        569
    x[7]      OBJ       -807
    x[8]      c1        775
    x[8]      c2        131
    x[8]      c3        375
    x[8]      c4        329
    x[8]      OBJ       -739
    x[9]      c1        774
    x[9]      c2        759
    x[9]      c3        615
    x[9]      c4        713
    x[9]      OBJ       -742
    x[10]     c1        808
    x[10]     c2        789
    x[10]     c3        479
    x[10]     c4        185
    x[10]     OBJ       -644
    x[11]     c1        62
    x[11]     c2        376
    x[11]     c3        205
    x[11]     c4        740
    x[11]     OBJ       -190
    x[12]     c1        134
    x[12]     c2        740
    x[12]     c3        15
    x[12]     c4        626
    x[12]     OBJ       -59
    x[13]     c1        912
    x[13]     c2        458
    x[13]     c3        955
    x[13]     c4        535
    x[13]     OBJ       -163
    x[14]     c1        966
    x[14]     c2        533
    x[14]     c3        799
    x[14]     c4        653
    x[14]     OBJ       -762
    x[15]     c1        899
    x[15]     c2        923
    x[15]     c3        486
    x[15]     c4        360
    x[15]     OBJ       -720
    x[16]     c1        727
    x[16]     c2        291
    x[16]     c3        5
    x[16]     c4        646
    x[16]     OBJ       -671
    x[17]     c1        445
    x[17]     c2        578
    x[17]     c3        763
    x[17]     c4        586
    x[17]     OBJ       -917
    x[18]     c1        626
    x[18]     c2        57
    x[18]     c3        33
    x[18]     c4        383
    x[18]     OBJ       -641
    x[19]     c1        936
    x[19]     c2        833
    x[19]     c3        241
    x[19]     c4        239
    x[19]     OBJ       -362
    x[20]     c1        642
    x[20]     c2        905
    x[20]     c3        744
    x[20]     c4        757
    x[20]     OBJ       -650
    x[21]     c1        829
    x[21]     c2        648
    x[21]     c3        873
    x[21]     c4        474
    x[21]     OBJ       -1
    x[22]     c1        343
    x[22]     c2        842
    x[22]     c3        336
    x[22]     c4        516
    x[22]     OBJ       -34
    x[23]     c1        826
    x[23]     c2        769
    x[23]     c3        208
    x[23]     c4        889
    x[23]     OBJ       -529
    x[24]     c1        869
    x[24]     c2        313
    x[24]     c3        655
    x[24]     c4        741
    x[24]     OBJ       -508
    x[25]     c1        410
    x[25]     c2        222
    x[25]     c3        616
    x[25]     c4        534
    x[25]     OBJ       -750
    x[26]     c1        989
    x[26]     c2        785
    x[26]     c3        502
    x[26]     c4        772
    x[26]     OBJ       -219
    x[27]     c1        814
    x[27]     c2        278
    x[27]     c3        805
    x[27]     c4        622
    x[27]     OBJ       -651
    x[28]     c1        435
    x[28]     c2        375
    x[28]     c3        883
    x[28]     c4        781
    x[28]     OBJ       -600
    x[29]     c1        168
    x[29]     c2        10
    x[29]     c3        39
    x[29]     c4        169
    x[29]     OBJ       -136
    x[30]     c1        199
    x[30]     c2        425
    x[30]     c3        580
    x[30]     c4        977
    x[30]     OBJ       -401
    x[31]     c1        903
    x[31]     c2        382
    x[31]     c3        594
    x[31]     c4        880
    x[31]     OBJ       -879
    x[32]     c1        560
    x[32]     c2        756
    x[32]     c3        895
    x[32]     c4        754
    x[32]     OBJ       -428
    x[33]     c1        657
    x[33]     c2        395
    x[33]     c3        632
    x[33]     c4        938
    x[33]     OBJ       -27
    x[34]     c1        337
    x[34]     c2        389
    x[34]     c3        432
    x[34]     c4        275
    x[34]     OBJ       -372
    x[35]     c1        915
    x[35]     c2        565
    x[35]     c3        520
    x[35]     c4        466
    x[35]     OBJ       -291
    x[36]     c1        754
    x[36]     c2        482
    x[36]     c3        907
    x[36]     c4        139
    x[36]     OBJ       -31
    x[37]     c1        171
    x[37]     c2        398
    x[37]     c3        693
    x[37]     c4        935
    x[37]     OBJ       -12
    x[38]     c1        799
    x[38]     c2        781
    x[38]     c3        203
    x[38]     c4        347
    x[38]     OBJ       -57
    x[39]     c1        310
    x[39]     c2        935
    x[39]     c3        274
    x[39]     c4        223
    x[39]     OBJ       -562
    x[40]     c1        409
    x[40]     c2        916
    x[40]     c3        913
    x[40]     c4        351
    x[40]     OBJ       -353
    x[41]     c1        371
    x[41]     c2        560
    x[41]     c3        302
    x[41]     c4        797
    x[41]     OBJ       -398
    x[42]     c1        53
    x[42]     c2        856
    x[42]     c3        98
    x[42]     c4        901
    x[42]     OBJ       -171
    x[43]     c1        23
    x[43]     c2        331
    x[43]     c3        926
    x[43]     c4        407
    x[43]     OBJ       -708
    x[44]     c1        804
    x[44]     c2        805
    x[44]     c3        123
    x[44]     c4        279
    x[44]     OBJ       -688
    x[45]     c1        550
    x[45]     c2        977
    x[45]     c3        412
    x[45]     c4        288
    x[45]     OBJ       -634
RHS
    rhs       c1        12322
    rhs       c2        12236
    rhs       c3        11087
    rhs       c4        11932
RANGES
BOUNDS
 BV bounds    x[1]
 BV bounds    x[2]
 BV bounds    x[3]
 BV bounds    x[4]
 BV bounds    x[5]
 BV bounds    x[6]
 BV bounds    x[7]
 BV bounds    x[8]
 BV bounds    x[9]
 BV bounds    x[10]
 BV bounds    x[11]
 BV bounds    x[12]
 BV bounds    x[13]
 BV bounds    x[14]
 BV bounds    x[15]
 BV bounds    x[16]
 BV bounds    x[17]
 BV bounds    x[18]
 BV bounds    x[19]
 BV bounds    x[20]
 BV bounds    x[21]
 BV bounds    x[22]
 BV bounds    x[23]
 BV bounds    x[24]
 BV bounds    x[25]
 BV bounds    x[26]
 BV bounds    x[27]
 BV bounds    x[28]
 BV bounds    x[29]
 BV bounds    x[30]
 BV bounds    x[31]
 BV bounds    x[32]
 BV bounds    x[33]
 BV bounds    x[34]
 BV bounds    x[35]
 BV bounds    x[36]
 BV bounds    x[37]
 BV bounds    x[38]
 BV bounds    x[39]
 BV bounds    x[40]
 BV bounds    x[41]
 BV bounds    x[42]
 BV bounds    x[43]
 BV bounds    x[44]
 BV bounds    x[45]
ENDATA
